NAME: line_70_0
TYPE: TSP
COMMENT: line_70_0
DIMENSION: 70
EDGE_WEIGHT_TYPE: EUC_2D
NODE_COORD_SECTION
1 0.0 611.0
2 0.0 572.0
3 0.0 621.0
4 0.0 9.0
5 0.0 674.0
6 0.0 57.0
7 0.0 497.0
8 0.0 238.0
9 0.0 2.0
10 0.0 29.0
11 0.0 658.0
12 0.0 590.0
13 0.0 357.0
14 0.0 295.0
15 0.0 440.0
16 0.0 636.0
17 0.0 601.0
18 0.0 516.0
19 0.0 512.0
20 0.0 46.0
21 0.0 487.0
22 0.0 408.0
23 0.0 244.0
24 0.0 191.0
25 0.0 106.0
26 0.0 683.0
27 0.0 435.0
28 0.0 417.0
29 0.0 6.0
30 0.0 472.0
31 0.0 274.0
32 0.0 432.0
33 0.0 583.0
34 0.0 299.0
35 0.0 120.0
36 0.0 381.0
37 0.0 330.0
38 0.0 439.0
39 0.0 150.0
40 0.0 356.0
41 0.0 71.0
42 0.0 461.0
43 0.0 695.0
44 0.0 479.0
45 0.0 25.0
46 0.0 474.0
47 0.0 644.0
48 0.0 13.0
49 0.0 498.0
50 0.0 444.0
51 0.0 536.0
52 0.0 638.0
53 0.0 439.0
54 0.0 360.0
55 0.0 32.0
56 0.0 694.0
57 0.0 367.0
58 0.0 246.0
59 0.0 251.0
60 0.0 189.0
61 0.0 339.0
62 0.0 396.0
63 0.0 403.0
64 0.0 142.0
65 0.0 5.0
66 0.0 520.0
67 0.0 112.0
68 0.0 270.0
69 0.0 561.0
70 0.0 542.0
